VALUE 2700464
1 217
8 118
9 215
9 13
13 17
17 21
21 25
29 30
30 210
1 32
9 36
13 40
17 44
21 48
25 52
56 208
57 115
61 111
65 66
66 67
67 197
71 191
72 73
73 74
74 160
75 175
79 162
80 81
81 82
82 83
83 144
87 129
91 115
92 93
93 94
94 95
72 95
96 97
93 97
80 103
92 107
91 111
87 115
96 118
83 129
79 144
160 162
75 162
175 181
71 181
191 192
192 196
196 199
197 205
197 199
205 206
29 206
206 208
210 213
213 214
32 214
1 215
8 218
9 219
13 220
17 221
21 222
25 223
32 224
36 225
40 226
44 227
48 228
52 229
56 230
57 231
61 232
65 233
71 234
74 235
79 236
81 237
87 238
91 239
95 240
97 241
103 242
107 243

